c status 71 1469274380990
c status 59 1469274380992
c status 58 1469274381116
c status 57 1469274381743
s td 21 57 81
b 1 16 28 40 52 76 80 4 64 1 20 60 71 27 56 32 44 17 49 38
b 2 28 40 52 76 80 4 64 1 20 33 45 60 61 71 72 39 27 56 32 44 17 49 50 38 29
b 3 40 52 76 80 4 64 1 20 33 45 60 73 61 71 72 39 27 56 62 32 44 17 49 50 38 29 51 41
b 4 52 76 80 4 64 1 20 33 45 60 73 61 71 72 39 27 56 74 62 53 63 32 44 17 49 50 38 29 51 41
b 5 76 80 4 64 1 20 33 45 60 73 61 71 72 39 27 56 77 74 62 53 63 32 44 17 49 50 38 29 51 41
b 6 69 75 58 59 1 2 10 20 14 73 71 72 3 39 25 36 77 74 78 70 49 47 79 30
b 7 75 65 58 59 64 1 2 10 20 68 14 15 73 71 72 3 39 25 36 27 56 54 21 77 74 66 78 63 32 43 70 49 47 51 79 30
b 8 65 58 59 64 1 2 10 20 68 5 14 15 55 45 60 73 61 71 72 67 3 39 25 36 27 56 54 21 77 74 62 66 78 53 63 32 43 17 70 49 47 29 51 79 30 41
b 9 48 58 59 4 13 68 5 15 55 60 72 37 36 56 54 53 9 70 49 47 50 38 26 29 51 19
b 10 58 59 4 64 1 2 13 10 20 68 5 14 15 55 45 60 73 61 71 72 67 3 37 39 25 36 27 56 54 21 77 74 62 66 78 53 9 63 32 43 17 70 49 47 50 38 26 29 51 79 19 30 41
b 11 4 64 1 2 13 10 20 68 5 14 15 33 55 45 60 73 61 71 72 67 3 7 37 39 25 36 27 56 54 21 77 74 62 66 78 53 9 63 32 43 44 17 70 49 47 50 31 38 26 29 51 79 19 30 41
b 12 23 11 34 12 22 81 20 68 14 15 33 45 72 67 56 21 62 78 53 43 18 17 19
b 13 42 12 22 57 6 1 13 20 45 61 71 37 39 36 54 74 66 78 53 9 63 32 43 44 18 31 38 51 30 41
b 14 11 34 12 22 81 8 6 10 20 68 5 14 15 33 55 45 60 72 67 3 7 56 21 77 62 66 78 53 9 43 44 18 17 70 50 31 79 19 41
b 15 34 12 22 81 57 8 6 10 20 68 5 14 15 33 55 45 60 73 72 67 3 7 25 27 56 54 21 77 62 66 78 53 9 63 32 43 44 18 17 70 50 31 26 29 79 19 30 41
b 16 12 22 81 57 8 6 1 13 10 20 68 5 14 15 33 55 45 60 73 61 71 72 67 3 7 37 39 25 36 27 56 54 21 77 74 62 66 78 53 9 63 32 43 44 18 17 70 50 31 38 26 29 51 79 19 30 41
b 17 24 35 46 81 57 6 2 13 68 5 14 55 60 71 67 7 27 43 17 49 31 38 79 19
b 18 35 46 81 57 8 6 2 13 20 68 5 14 15 55 60 61 71 72 67 7 39 25 27 56 32 43 44 18 17 49 50 31 38 29 79 19
b 19 46 81 57 8 6 2 13 20 68 5 14 15 33 55 45 60 73 61 71 72 67 7 39 25 36 27 56 21 62 9 32 43 44 18 17 49 50 31 38 26 29 51 79 19 30 41
b 20 81 57 8 6 1 2 13 10 20 68 5 14 15 33 55 45 60 73 61 71 72 67 3 7 37 39 25 36 27 56 54 21 77 74 62 66 78 53 9 63 32 43 44 18 17 70 49 50 31 38 26 29 51 79 19 30 41
b 21 57 8 6 1 2 13 10 20 68 5 14 15 33 55 45 60 73 61 71 72 67 3 7 37 39 25 36 27 56 54 21 77 74 62 66 78 53 9 63 32 43 44 18 17 70 49 47 50 31 38 26 29 51 79 19 30 41
1 2
2 3
3 4
4 5
5 11
11 21
21 20
20 16
11 10
16 15
20 19
10 8
15 14
19 18
8 7
16 13
10 9
7 6
18 17
14 12
